c CNF file corresponding to a (partial) station packing problem.
p cnf 3438 229
1 2 3 4 5 6 7 8 9 10 11 12 13 14 0
-1 -2 0
-1 -3 0
-1 -4 0
-1 -5 0
-1 -6 0
-1 -7 0
-1 -8 0
-1 -9 0
-1 -10 0
-1 -11 0
-1 -12 0
-1 -13 0
-1 -14 0
-2 -3 0
-2 -4 0
-2 -5 0
-2 -6 0
-2 -7 0
-2 -8 0
-2 -9 0
-2 -10 0
-2 -11 0
-2 -12 0
-2 -13 0
-2 -14 0
-3 -4 0
-3 -5 0
-3 -6 0
-3 -7 0
-3 -8 0
-3 -9 0
-3 -10 0
-3 -11 0
-3 -12 0
-3 -13 0
-3 -14 0
-4 -5 0
-4 -6 0
-4 -7 0
-4 -8 0
-4 -9 0
-4 -10 0
-4 -11 0
-4 -12 0
-4 -13 0
-4 -14 0
-5 -6 0
-5 -7 0
-5 -8 0
-5 -9 0
-5 -10 0
-5 -11 0
-5 -12 0
-5 -13 0
-5 -14 0
-6 -7 0
-6 -8 0
-6 -9 0
-6 -10 0
-6 -11 0
-6 -12 0
-6 -13 0
-6 -14 0
-7 -8 0
-7 -9 0
-7 -10 0
-7 -11 0
-7 -12 0
-7 -13 0
-7 -14 0
-8 -9 0
-8 -10 0
-8 -11 0
-8 -12 0
-8 -13 0
-8 -14 0
-9 -10 0
-9 -11 0
-9 -12 0
-9 -13 0
-9 -14 0
-10 -11 0
-10 -12 0
-10 -13 0
-10 -14 0
-11 -12 0
-11 -13 0
-11 -14 0
-12 -13 0
-12 -14 0
-13 -14 0
3422 3423 3424 3425 3426 3427 3428 3429 3430 3431 3432 3433 3434 3435 3436 3437 3438 0
-3422 -3423 0
-3422 -3424 0
-3422 -3425 0
-3422 -3426 0
-3422 -3427 0
-3422 -3428 0
-3422 -3429 0
-3422 -3430 0
-3422 -3431 0
-3422 -3432 0
-3422 -3433 0
-3422 -3434 0
-3422 -3435 0
-3422 -3436 0
-3422 -3437 0
-3422 -3438 0
-3423 -3424 0
-3423 -3425 0
-3423 -3426 0
-3423 -3427 0
-3423 -3428 0
-3423 -3429 0
-3423 -3430 0
-3423 -3431 0
-3423 -3432 0
-3423 -3433 0
-3423 -3434 0
-3423 -3435 0
-3423 -3436 0
-3423 -3437 0
-3423 -3438 0
-3424 -3425 0
-3424 -3426 0
-3424 -3427 0
-3424 -3428 0
-3424 -3429 0
-3424 -3430 0
-3424 -3431 0
-3424 -3432 0
-3424 -3433 0
-3424 -3434 0
-3424 -3435 0
-3424 -3436 0
-3424 -3437 0
-3424 -3438 0
-3425 -3426 0
-3425 -3427 0
-3425 -3428 0
-3425 -3429 0
-3425 -3430 0
-3425 -3431 0
-3425 -3432 0
-3425 -3433 0
-3425 -3434 0
-3425 -3435 0
-3425 -3436 0
-3425 -3437 0
-3425 -3438 0
-3426 -3427 0
-3426 -3428 0
-3426 -3429 0
-3426 -3430 0
-3426 -3431 0
-3426 -3432 0
-3426 -3433 0
-3426 -3434 0
-3426 -3435 0
-3426 -3436 0
-3426 -3437 0
-3426 -3438 0
-3427 -3428 0
-3427 -3429 0
-3427 -3430 0
-3427 -3431 0
-3427 -3432 0
-3427 -3433 0
-3427 -3434 0
-3427 -3435 0
-3427 -3436 0
-3427 -3437 0
-3427 -3438 0
-3428 -3429 0
-3428 -3430 0
-3428 -3431 0
-3428 -3432 0
-3428 -3433 0
-3428 -3434 0
-3428 -3435 0
-3428 -3436 0
-3428 -3437 0
-3428 -3438 0
-3429 -3430 0
-3429 -3431 0
-3429 -3432 0
-3429 -3433 0
-3429 -3434 0
-3429 -3435 0
-3429 -3436 0
-3429 -3437 0
-3429 -3438 0
-3430 -3431 0
-3430 -3432 0
-3430 -3433 0
-3430 -3434 0
-3430 -3435 0
-3430 -3436 0
-3430 -3437 0
-3430 -3438 0
-3431 -3432 0
-3431 -3433 0
-3431 -3434 0
-3431 -3435 0
-3431 -3436 0
-3431 -3437 0
-3431 -3438 0
-3432 -3433 0
-3432 -3434 0
-3432 -3435 0
-3432 -3436 0
-3432 -3437 0
-3432 -3438 0
-3433 -3434 0
-3433 -3435 0
-3433 -3436 0
-3433 -3437 0
-3433 -3438 0
-3434 -3435 0
-3434 -3436 0
-3434 -3437 0
-3434 -3438 0
-3435 -3436 0
-3435 -3437 0
-3435 -3438 0
-3436 -3437 0
-3436 -3438 0
-3437 -3438 0
